c ---- [ banner ] ------------------------------------------------------------
c
c Kissat SAT Solver
c 
c Copyright (c) 2021-2024 Armin Biere University of Freiburg
c Copyright (c) 2019-2021 Armin Biere Johannes Kepler University Linz
c 
c Version 4.0.1 43f02cf3e992cb44653b35e5cb26f93281552ae0
c gcc (Ubuntu 13.2.0-23ubuntu4) 13.2.0 -W -Wall -O3 -DNDEBUG
c Thu Sep 12 12:27:46 CEST 2024 Linux abryzen9 6.8.0-41-generic x86_64
c
c ---- [ parsing ] -----------------------------------------------------------
c
c opened and reading DIMACS file:
c
c   /data/artifact/AMulet2.0_artifact/exp4/cnf_dc2_64/64_64_U_SP_AR_BK_GenMul_dc2.cnf
c
c parsed 'p cnf 28354 124558' header
c closing input after reading 2478315 bytes (2 MB)
c finished parsing after 0.03 seconds
c
c ---- [ options ] -----------------------------------------------------------
c
c --stable=0                       (different from default '1')
c
c ---- [ solving ] -----------------------------------------------------------
c
c  seconds switched rate     size/glue tier1  binary          remaining
c         MB reductions conflicts size  tier2    irredundant
c          level restarts redundant glue  trail          variables
c
c *  0.03 10 0 0 0  0 0   0   0 0.0 0 0 0 0 0% 8857 115699 28351 100%
c (  0.06 13 0 0 0  0 0   0   0 0.0 0 0 0 0 0% 8857 115699 28351 100%
c .  0.07 13 0 0 0  0 0   0   0 0.0 0 0 0 0 0% 8853 115699 28351 100%
c f  0.21 16 0 0 0  0 0   0   0 0.0 0 0 0 0 0% 8861 115683 28359 100%
c e  0.30 24 0 0 0  0 0   0   0 0.0 0 0 0 0 0% 8473 115885 20286 72%
c )  0.30 24 0 0 0  0 0   0   0 0.0 0 0 0 0 0% 8473 115885 20286 72%
c {  0.32 26 0 0 0  0 0   0   0 0.0 0 0 2 6 0% 8473 115885 20286 72%
c -  0.43 26 118 0 1 286 28 1002 844 2.2 11 5 3 11 17% 8486 115885 20286 72%
c -  0.53 26 111 0 2 505 27 2003 1599 2.1 12 6 4 13 19% 8497 115885 20286 72%
c u  0.59 26 112 0 2 574 25 2505 1799 2.0 12 6 4 13 19% 8504 115885 20286 72%
c v  0.60 26 112 0 2 574 25 2505 1752 2.0 12 6 4 13 19% 8504 115885 20286 72%
c w  0.61 26 112 0 2 574 25 2505 1749 2.0 12 6 4 13 19% 8504 115885 20286 72%
c f  0.64 26 112 0 2 574 25 2505 1749 2.0 12 6 4 13 19% 8505 115883 20287 72%
c u  0.70 26 112 0 2 574 25 2505 1593 2.0 12 6 4 13 19% 8506 115883 20287 72%
c v  0.71 26 112 0 2 574 25 2505 1546 2.0 12 6 4 13 19% 8506 115883 20287 72%
c w  0.72 26 112 0 2 574 25 2505 1544 2.0 12 6 4 13 19% 8506 115883 20287 72%
c =  0.75 26 112 0 2 574 25 2505 1544 2.0 12 6 4 13 19% 8752 115881 20164 71%
c d  0.76 26 112 0 2 574 25 2505 1544 2.0 12 6 4 13 19% 8506 115881 20164 71%
c f  0.78 26 112 0 2 574 25 2505 1544 2.0 12 6 4 13 19% 8508 115877 20166 71%
c -  0.88 26 110 0 3 776 25 3419 2053 2.1 13 6 4 13 19% 8518 115877 20166 71%
c
c  seconds   switched   rate       size/glue tier1     binary          remaining
c         MB  reductions conflicts       size  tier2      irredundant
c           level restarts    redundant    glue    trail          variables
c
c -  1.01 26 105 0 4 945 21 5153 3201 2.0 12 6 3 12 20% 8528 115877 20166 71%
c -  1.18 26 103 0 5 1143 20 7153 4415 2.0 12 6 3 11 20% 8536 115877 20166 71%
c u  1.25 26 103 0 5 1229 20 7714 4616 2.0 12 6 3 11 21% 8557 115877 20166 71%
c v  1.26 26 103 0 5 1229 20 7714 4484 2.0 12 6 3 11 21% 8557 115877 20166 71%
c w  1.27 26 103 0 5 1229 20 7714 4484 2.0 12 6 3 11 21% 8557 115877 20166 71%
c =  1.34 26 103 0 5 1229 20 7714 4484 2.0 12 6 3 11 21% 10101 115849 19394 68%
c d  1.35 26 103 0 5 1229 20 7714 4474 2.0 12 6 3 11 21% 8557 115849 19394 68%
c t  1.36 26 103 0 5 1229 20 7714 4474 2.0 12 6 3 11 21% 8549 115849 19394 68%
c f  1.38 26 103 0 5 1229 20 7714 4474 2.0 12 6 3 11 21% 8560 115799 19420 68%
c u  1.41 26 103 0 5 1229 20 7714 3953 2.0 12 6 3 11 21% 8566 115799 19420 68%
c v  1.43 26 103 0 5 1229 20 7714 3783 2.0 12 6 3 11 21% 8566 115799 19420 68%
c w  1.44 26 103 0 5 1229 20 7714 3779 2.0 12 6 3 11 21% 8566 115799 19420 68%
c =  1.50 26 103 0 5 1229 20 7714 3779 2.0 12 6 3 11 21% 10268 115771 18568 65%
c d  1.51 26 103 0 5 1229 20 7714 3776 2.0 12 6 3 11 21% 8564 115771 18568 65%
c t  1.52 26 103 0 5 1229 20 7714 3776 2.0 12 6 3 11 21% 8558 115771 18568 65%
c f  1.54 26 103 0 5 1229 20 7714 3776 2.0 12 6 3 11 21% 8568 115729 18590 66%
c -  1.67 26 101 0 6 1466 19 9389 4573 2.0 12 6 3 11 20% 8584 115729 18590 66%
c o  1.72 26 99 0 6 1534 19 10000 5172 2.0 12 6 3 11 20% 8586 115729 18590 66%
c -  1.89 26 98 0 7 1796 19 11840 5883 2.0 13 6 3 11 19% 8610 115727 18590 66%
c s  1.97 26 98 0 7 1884 19 12520 6536 2.0 13 6 3 11 19% 8620 103645 18590 66%
c
c  seconds  switched    rate        size/glue tier1     binary          remaining
c         MB reductions   conflicts       size  tier2      irredundant
c          level  restarts     redundant    glue    trail          variables
c
c e  2.04 26 98 0 7 1884 19 12520 6536 2.0 13 6 3 11 19% 8570 103691 18540 65%
c s  2.04 26 98 0 7 1884 19 12520 6536 2.0 13 6 3 11 19% 8570 103669 18540 65%
c e  2.04 26 98 0 7 1884 19 12520 6536 2.0 13 6 3 11 19% 8559 103660 18524 65%
c ^  2.04 26 98 0 7 1884 19 12520 6536 2.0 13 6 3 11 19% 8559 103660 18524 65%
c -  2.20 26 97 0 8 2089 18 14486 7184 2.0 13 6 3 10 20% 8573 103660 18524 65%
c c  2.34 26 97 0 8 2215 18 15802 8475 2.0 13 6 3 10 20% 8585 103652 18523 65%
c d  2.34 26 97 0 8 2215 18 15802 8475 2.0 13 6 3 10 20% 8583 103652 18523 65%
c u  2.37 26 97 0 8 2215 18 15802 7420 2.0 13 6 3 10 20% 8695 103652 18523 65%
c v  2.40 26 97 0 8 2215 18 15802 7166 2.0 13 6 3 10 20% 8695 103652 18523 65%
c w  2.41 26 97 0 8 2215 18 15802 7164 2.0 13 6 3 10 20% 8695 103652 18523 65%
c =  2.51 26 97 0 8 2215 18 15802 7164 2.0 13 6 3 10 20% 10753 103594 17490 62%
c d  2.52 26 97 0 8 2215 18 15802 7118 2.0 13 6 3 10 20% 8694 103590 17490 62%
c t  2.53 26 97 0 8 2215 18 15802 7118 2.0 13 6 3 10 20% 8663 103590 17490 62%
c u  2.58 26 97 0 8 2215 18 15802 6770 2.0 13 6 3 10 20% 8660 103590 17490 62%
c v  2.59 26 97 0 8 2215 18 15802 6692 2.0 13 6 3 10 20% 8660 103590 17490 62%
c w  2.60 26 97 0 8 2215 18 15802 6689 2.0 13 6 3 10 20% 8660 103590 17490 62%
c x  2.62 26 97 0 8 2215 18 15802 6689 2.0 13 6 3 10 20% 8660 101327 17490 62%
c =  2.70 26 97 0 8 2215 18 15802 6689 2.0 13 6 3 10 20% 10842 101231 16391 58%
c d  2.71 26 97 0 8 2215 18 15802 6689 2.0 13 6 3 10 20% 8662 101231 16391 58%
c t  2.71 26 97 0 8 2215 18 15802 6689 2.0 13 6 3 10 20% 8629 101231 16391 58%
c
c  seconds  switched    rate        size/glue tier1     binary          remaining
c         MB reductions   conflicts       size  tier2      irredundant
c          level  restarts     redundant    glue    trail          variables
c
c f  2.74 26 97 0 8 2215 18 15802 6689 2.0 13 6 3 10 20% 8613 101227 16392 58%
c -  2.88 26 96 0 9 2411 18 17314 6850 2.0 13 6 3 10 19% 8625 101227 16392 58%
c o  3.15 26 96 0 9 2767 17 20006 9438 2.0 13 7 3 10 19% 8653 101227 16392 58%
c -  3.20 26 96 0 10 2817 17 20315 7990 2.0 13 7 2 10 19% 8656 101226 16392 58%
c -  3.44 26 97 0 11 3127 17 23478 9170 2.0 13 7 2 10 20% 8689 101226 16392 58%
c s  3.52 26 98 0 11 3201 17 25026 10675 2.0 13 7 2 10 20% 8701 88825 16392 58%
c e  3.58 26 98 0 11 3201 17 25026 10675 2.0 13 7 2 10 20% 8642 88836 16345 58%
c s  3.58 26 98 0 11 3201 17 25026 10675 2.0 13 7 2 10 20% 8648 88799 16345 58%
c e  3.58 26 98 0 11 3201 17 25026 10675 2.0 13 7 2 10 20% 8647 88798 16344 58%
c ^  3.58 26 98 0 11 3201 17 25026 10675 2.0 13 7 2 10 20% 8647 88798 16344 58%
c -  3.70 26 99 0 12 3388 16 26796 10359 2.0 13 7 2 9 20% 8664 88798 16344 58%
c u  3.75 26 99 0 12 3400 16 26931 9452 2.0 13 7 2 9 20% 8721 88798 16344 58%
c v  3.79 26 99 0 12 3400 16 26931 9030 2.0 13 7 2 9 20% 8723 88798 16344 58%
c w  3.79 26 99 0 12 3400 16 26931 9027 2.0 13 7 2 9 20% 8723 88798 16344 58%
c =  3.90 26 99 0 12 3400 16 26931 9027 2.0 13 7 2 9 20% 11335 88658 15027 53%
c d  3.90 26 99 0 12 3400 16 26931 8987 2.0 13 7 2 9 20% 8717 88658 15027 53%
c t  3.91 26 99 0 12 3400 16 26931 8987 2.0 13 7 2 9 20% 8660 88658 15027 53%
c u  3.97 26 99 0 12 3400 16 26931 8635 2.0 13 7 2 9 20% 8647 88658 15027 53%
c v  3.99 26 99 0 12 3400 16 26931 8496 2.0 13 7 2 9 20% 8647 88658 15027 53%
c w  4.00 26 99 0 12 3400 16 26931 8495 2.0 13 7 2 9 20% 8647 88658 15027 53%
c
c  seconds  switched     rate        size/glue tier1    binary         remaining
c         MB  reductions   conflicts       size  tier2     irredundant
c          level   restarts     redundant    glue   trail         variables
c
c x  4.02 26 99 0 12 3400 16 26931 8495 2.0 13 7 2 9 20% 8647 83611 15027 53%
c =  4.13 26 99 0 12 3400 16 26931 8495 2.0 13 7 2 9 20% 11277 83531 13701 48%
c d  4.13 26 99 0 12 3400 16 26931 8492 2.0 13 7 2 9 20% 8647 83531 13701 48%
c f  4.16 26 99 0 12 3400 16 26931 8492 2.0 13 7 2 9 20% 8651 83521 13703 48%
c -  4.37 26 100 0 13 3633 16 30261 9835 2.0 13 7 2 9 22% 8671 83521 13703 48%
c -  4.61 26 98 0 14 4065 15 33866 11258 2.1 14 7 2 8 22% 8706 83521 13703 48%
c -  4.90 26 98 0 15 4446 15 37608 12565 2.1 14 7 2 8 23% 8730 83521 13703 48%
c o  5.05 26 97 0 15 4702 15 40046 14885 2.1 14 7 2 8 23% 8747 83521 13703 48%
c c  5.17 26 97 0 15 4859 15 41260 16052 2.1 14 7 2 8 23% 8816 83312 13677 48%
c d  5.17 26 97 0 15 4859 15 41260 15988 2.1 14 7 2 8 23% 8764 83312 13677 48%
c u  5.21 26 97 0 15 4859 15 41260 15324 2.1 14 7 2 8 23% 8802 83312 13677 48%
c v  5.24 26 97 0 15 4859 15 41260 14885 2.1 14 7 2 8 23% 8804 83312 13677 48%
c w  5.25 26 97 0 15 4859 15 41260 14884 2.1 14 7 2 8 23% 8804 83312 13677 48%
c x  5.28 26 97 0 15 4859 15 41260 14884 2.1 14 7 2 8 23% 8804 79799 13677 48%
c =  5.39 26 97 0 15 4859 15 41260 14884 2.1 14 7 2 8 23% 11756 79643 12173 43%
c }  5.39 26 97 0 15 4859 15 41260 14884 2.1 14 7 2 8 23% 11756 79643 13648 48%
c 0  5.39 26 97 0 15 4859 15 41260 14884 2.1 14 7 2 8 23% 11756 79643 13648 48%
c
c ---- [ result ] ------------------------------------------------------------
c
s UNSATISFIABLE
c
c ---- [ profiling ] ---------------------------------------------------------
c
c           3.23   59.86 %  search
c           3.23   59.86 %  focused
c           1.84   34.23 %  simplify
c           1.81   33.62 %  probe
c           0.68   12.62 %  sweep
c           0.56   10.33 %  vivify
c           0.24    4.49 %  preprocess
c           0.22    4.07 %  factor
c           0.18    3.25 %  eliminate
c           0.16    2.96 %  congruence
c           0.15    2.69 %  substitute
c           0.09    1.66 %  fastel
c           0.06    1.10 %  reduce
c           0.05    0.91 %  lucky
c           0.04    0.72 %  subsume
c           0.03    0.62 %  transitive
c           0.03    0.51 %  parse
c           0.02    0.32 %  backbone
c =============================================
c           5.39  100.00 %  total
c
c ---- [ statistics ] --------------------------------------------------------
c
c chronological:                          368                1 %  conflicts
c conflicts:                            41260             7655.75 per second
c congruent:                               27                0 %  variables
c decisions:                           626341               15.18 per conflict
c eliminated:                            8187               29 %  variables
c factored:                                62                0 %  variables
c fast_eliminated:                       8073               99 %  eliminated
c fast_subsumed:                            1                0 %  per subsumed
c propagations:                      31285720          5805034    per second
c reductions:                              15             2751    interval
c reordered:                                3            13753    interval
c restarts:                              4859                8    interval
c strengthened:                           122                0 %  checks
c substituted:                           6510               23 %  variables
c subsumed:                             24536                2 %  checks
c switched:                                 0                0    interval
c vivified:                             21718               25 %  checks
c
c ---- [ glue usage ] --------------------------------------------------------
c
c focused glue 2   used 15815 clauses 29.06% accumulated 63.63% tier1
c focused glue 3   used  5378 clauses  9.88% accumulated 73.51%
c focused glue 4-6 used  7052 clauses 12.96% accumulated 86.47%
c focused glue 7   used  1409 clauses  2.59% accumulated 89.06%
c focused glue 8   used  1097 clauses  2.02% accumulated 91.08% tier2
c
c ---- [ resources ] ---------------------------------------------------------
c
c maximum-resident-set-size:         27312128 bytes         26 MB
c process-time:                             5s               5.39 seconds
c
c ---- [ shutting down ] -----------------------------------------------------
c
c exit 20
